cspt/carrier_0_55.leadtime.lower_bound.sol
00000004 Qj00g04 1
00000006 Qj01g01 1
00000012 Qj02g02 1
00000015 Qj03g00 1
00000023 Qj04g03 1
